$molecule
0 1 
N 1.49734710644 1.0313500559 -0.203327791225
C 0.658427582444 0.221718202307 -1.09171642203
C 1.52252864874 -1.0359675967 -1.27355545383
C 2.03220528744 0.136527445907 0.808620249375
C 2.33487326244 -1.1590750935 0.0388810784751
C 0.919159135844 2.2513393364 0.309778409875
H 0.544683291044 0.761619197107 -2.03779144383
H 2.19607445604 -0.881882769693 -2.11730370713
H 0.919671070444 -1.9196292763 -1.48895669303
H 1.30521290664 -0.0495368905933 1.62052381267
H 2.92118661174 0.579204309007 1.26636636797
H 3.40083051254 -1.2474623122 -0.175434188225
H 2.05149326994 -2.039876971 0.619678484875
H 0.554545278944 2.865843304 -0.517633626925
H 1.68996125024 2.8206550208 0.835914919775
H 0.0812768916441 2.0817140792 1.00770188597
N -3.41236253194 0.580625801685 -0.355828382517
C -1.10003518124 -0.123313046815 -0.411352053817
C -2.16395218644 0.689456934285 -0.803187429017
C -1.38923486994 -1.12486476542 0.513406015283
C -2.68300202444 -1.25388305262 0.996837900481
C -3.65649336684 -0.377568975315 0.535627096083
H -1.99006203174 1.47761407268 -1.53373156982
H -0.618329624736 -1.81076048082 0.846780916783
H -2.93624377414 -2.02312042272 1.71646541918
H -4.67976097114 -0.450726105615 0.893236204583
$end

$rem
jobtype sp
basis 6-311g**
method wb97x-d
thresh 11
symmetry false
sym_ignore true
$end
